N = 13;
H = 5;
T = 2;

avail = array3d(1..N, 1..H, 1..T, [3, 5, 3, 0, 2, 6, 3, 7, 5, 9, 6, 5, 5, 1, 0, 10, 4, 0, 8, 6, 2, 9, 1, 0, 7, 5, 5, 8, 0, 7, 4, 8, 2, 10, 3, 3, 10, 8, 5, 4, 4, 5, 5, 1, 2, 8, 10, 10, 8, 6, 0, 1, 1, 3, 6, 1, 8, 3, 6, 4, 6, 2, 9, 10, 10, 6, 6, 5, 6, 1, 10, 2, 7, 10, 10, 1, 5, 9, 10, 3, 9, 6, 2, 7, 10, 10, 1, 2, 10, 2, 9, 8, 7, 2, 9, 8, 2, 9, 5, 10, 5, 0, 8, 9, 9, 2, 5, 6, 8, 8, 9, 7, 6, 8, 10, 8, 2, 0, 3, 5, 7, 1, 9, 4, 0, 8, 4, 10, 4, 8]);

r = array2d(1..H, 1..T, [4, 2, 2, 2, 6, 2, 7, 3, 5, 3]);
